StudentsNr = 10;
InstructorsNr = 49;
DaysNr = 1;
SlotsPerDay = 10;
AvailabilitySlotsLenght = 2;
RoomNr = 1;
ProgrammNr = 2;
DegreeNr = 3;
RolesNr = 2;
CoursesNr = 3;
InstructorsProgramm = [{1}, {1}, {1, 2}, {1, 2}, {1}, {2}, {1, 2}, {1}, {2}, {2}, {1}, {1}, {2}, {1}, {1}, {1}, {2}, {1, 2}, {2}, {1}, {1}, {1}, {1, 2}, {1}, {2}, {1}, {1}, {1, 2}, {2}, {2}, {1, 2}, {1}, {1, 2}, {2}, {2}, {1, 2}, {1, 2}, {1, 2}, {2}, {2}, {1}, {1}, {1, 2}, {1}, {2}, {2}, {2}, {1}, {1}];
InstructorRolesPerProgramm = [|{2, 8, 11, 16, 21, 24, 32, 37, 38, 42, 43, 44}, {3, 4, 5, 16, 21, 22, 24, 26, 27, 28, 36, 38, 42, 43, 44}|{6, 10, 13, 17, 34, 35, 37, 38, 43, 45, 46}, {3, 4, 6, 10, 13, 28, 29, 30, 35, 36, 38, 40, 43, 46}|];
InstructorsAvailability = [|1, 1, 1, 1, 1, |0, 0, 0, 0, 1, |0, 1, 0, 1, 1, |1, 1, 1, 1, 1, |1, 1, 1, 1, 1, |0, 1, 1, 1, 1, |0, 1, 1, 1, 1, |0, 0, 0, 0, 1, |1, 1, 1, 1, 1, |1, 0, 0, 0, 1, |0, 1, 1, 0, 1, |1, 1, 1, 1, 1, |0, 0, 0, 1, 1, |0, 1, 1, 1, 1, |1, 1, 1, 1, 1, |1, 1, 1, 1, 1, |0, 1, 1, 1, 1, |1, 1, 1, 1, 1, |0, 0, 0, 0, 1, |1, 1, 1, 1, 1, |1, 1, 0, 1, 1, |1, 1, 1, 1, 1, |1, 0, 1, 1, 0, |0, 1, 1, 0, 1, |1, 1, 1, 1, 0, |1, 1, 1, 1, 1, |1, 1, 1, 1, 1, |0, 1, 1, 1, 0, |0, 1, 1, 1, 0, |0, 1, 1, 1, 0, |1, 1, 1, 1, 1, |0, 1, 1, 1, 1, |1, 1, 1, 1, 1, |0, 1, 1, 1, 1, |0, 0, 0, 1, 1, |0, 1, 1, 1, 1, |0, 0, 0, 1, 1, |0, 1, 1, 1, 1, |1, 1, 1, 1, 1, |0, 1, 1, 1, 1, |0, 1, 1, 0, 0, |1, 1, 1, 1, 0, |0, 0, 1, 1, 1, |0, 0, 0, 0, 1, |1, 0, 1, 0, 1, |0, 0, 1, 1, 1, |1, 1, 1, 0, 1, |1, 1, 1, 1, 1, |0, 0, 1, 1, 1|];
StudentsProgramm = [1, 1, 1, 1, 1, 1, 1, 1, 1, 1];
StudentsDegree = [3, 3, 2, 1, 2, 1, 2, 1, 3, 3];
StudentsSupervisorId = [48, 5, 16, 5, 48, 21, 7, 41, 1, 11];
StudentsCourseIds = [{1, 2}, {1, 2}, {}, {3}, {}, {1}, {}, {2}, {1, 2}, {1, 2}];
StudentsAvailability = [|0, 1, 1, 0, 1, |1, 1, 1, 1, 1, |0, 0, 0, 0, 0, |0, 0, 0, 0, 1, |1, 1, 1, 1, 0, |0, 0, 1, 1, 1, |1, 1, 1, 1, 1, |0, 0, 1, 1, 1, |0, 1, 1, 1, 1, |1, 1, 1, 1, 1|];
TheoryticalMinCard = [0, 0, 0, 0, 1, 0, 1, 1, 1, 0];
CoursesInstructorIds = [{4, 11, 20, 21, 24, 25, 34}, {2, 4, 5, 7, 8, 9, 12, 14, 16, 18, 26, 29, 32, 33, 35, 42, 43, 44, 45, 46, 47, 48, 49}, {4, 5, 9, 13, 17, 18, 19, 24, 29, 31, 35, 40, 41, 42, 46, 48}];
RolesDemands = [11, 13];
RolesContinuity = [2];
ExamLen = [2, 2, 2, 1, 2, 1, 2, 1, 2, 2];
LunchTsMinLen = 0;
LunchStarts = [2..7];
SupervisorAvailable = 0;
OptimalLunchLenght = [0, 0];
OptimalStartTs = [0, 0];
OptimalFinishTs = [1, 10];
MinimizeRooms = 500;
RolesSoftContinuity = [|1, 2|3, 0|];
SameDegreeInRoom = 20;
Mergeability = 2;
